experiment/data/hgs-res/Vrp-Set-Golden-n253/Vrp-Set-Golden-n253-hgs/0.hgs1.vrp
NAME : 0
COMMENT : CVRP Instance
TYPE : CVRP
DIMENSION : 253
EDGE_WEIGHT_TYPE : EUC_2D
CAPACITY : 1000
NODE_COORD_SECTION
1	0.0	0.0
2	3.0	1.0
3	3.0	3.0
4	1.0	3.0
5	-1.0	3.0
6	-3.0	3.0
7	-3.0	1.0
8	-3.0	-1.0
9	-3.0	-3.0
10	-1.0	-3.0
11	1.0	-3.0
12	3.0	-3.0
13	3.0	-1.0
14	5.0	1.0
15	5.0	3.0
16	5.0	5.0
17	3.0	5.0
18	1.0	5.0
19	-1.0	5.0
20	-3.0	5.0
21	-5.0	5.0
22	-5.0	3.0
23	-5.0	1.0
24	-5.0	-1.0
25	-5.0	-3.0
26	-5.0	-5.0
27	-3.0	-5.0
28	-1.0	-5.0
29	1.0	-5.0
30	3.0	-5.0
31	5.0	-5.0
32	5.0	-3.0
33	5.0	-1.0
34	7.0	1.0
35	7.0	3.0
36	7.0	5.0
37	7.0	7.0
38	5.0	7.0
39	3.0	7.0
40	1.0	7.0
41	-1.0	7.0
42	-3.0	7.0
43	-5.0	7.0
44	-7.0	7.0
45	-7.0	5.0
46	-7.0	3.0
47	-7.0	1.0
48	-7.0	-1.0
49	-7.0	-3.0
50	-7.0	-5.0
51	-7.0	-7.0
52	-5.0	-7.0
53	-3.0	-7.0
54	-1.0	-7.0
55	1.0	-7.0
56	3.0	-7.0
57	5.0	-7.0
58	7.0	-7.0
59	7.0	-5.0
60	7.0	-3.0
61	7.0	-1.0
62	9.0	1.0
63	9.0	3.0
64	9.0	5.0
65	9.0	7.0
66	9.0	9.0
67	7.0	9.0
68	5.0	9.0
69	3.0	9.0
70	1.0	9.0
71	-1.0	9.0
72	-3.0	9.0
73	-5.0	9.0
74	-7.0	9.0
75	-9.0	9.0
76	-9.0	7.0
77	-9.0	5.0
78	-9.0	3.0
79	-9.0	1.0
80	-9.0	-1.0
81	-9.0	-3.0
82	-9.0	-5.0
83	-9.0	-7.0
84	-9.0	-9.0
85	-7.0	-9.0
86	-5.0	-9.0
87	-3.0	-9.0
88	-1.0	-9.0
89	1.0	-9.0
90	3.0	-9.0
91	5.0	-9.0
92	7.0	-9.0
93	9.0	-9.0
94	9.0	-7.0
95	9.0	-5.0
96	9.0	-3.0
97	9.0	-1.0
98	11.0	1.0
99	11.0	3.0
100	11.0	5.0
101	11.0	7.0
102	11.0	9.0
103	11.0	11.0
104	9.0	11.0
105	7.0	11.0
106	5.0	11.0
107	3.0	11.0
108	1.0	11.0
109	-1.0	11.0
110	-3.0	11.0
111	-5.0	11.0
112	-7.0	11.0
113	-9.0	11.0
114	-11.0	11.0
115	-11.0	9.0
116	-11.0	7.0
117	-11.0	5.0
118	-11.0	3.0
119	-11.0	1.0
120	-11.0	-1.0
121	-11.0	-3.0
122	-11.0	-5.0
123	-11.0	-7.0
124	-11.0	-9.0
125	-11.0	-11.0
126	-9.0	-11.0
127	-7.0	-11.0
128	-5.0	-11.0
129	-3.0	-11.0
130	-1.0	-11.0
131	1.0	-11.0
132	3.0	-11.0
133	5.0	-11.0
134	7.0	-11.0
135	9.0	-11.0
136	11.0	-11.0
137	11.0	-9.0
138	11.0	-7.0
139	11.0	-5.0
140	11.0	-3.0
141	11.0	-1.0
142	13.0	1.0
143	13.0	3.0
144	13.0	5.0
145	13.0	7.0
146	13.0	9.0
147	13.0	11.0
148	13.0	13.0
149	11.0	13.0
150	9.0	13.0
151	7.0	13.0
152	5.0	13.0
153	3.0	13.0
154	1.0	13.0
155	-1.0	13.0
156	-3.0	13.0
157	-5.0	13.0
158	-7.0	13.0
159	-9.0	13.0
160	-11.0	13.0
161	-13.0	13.0
162	-13.0	11.0
163	-13.0	9.0
164	-13.0	7.0
165	-13.0	5.0
166	-13.0	3.0
167	-13.0	1.0
168	-13.0	-1.0
169	-13.0	-3.0
170	-13.0	-5.0
171	-13.0	-7.0
172	-13.0	-9.0
173	-13.0	-11.0
174	-13.0	-13.0
175	-11.0	-13.0
176	-9.0	-13.0
177	-7.0	-13.0
178	-5.0	-13.0
179	-3.0	-13.0
180	-1.0	-13.0
181	1.0	-13.0
182	3.0	-13.0
183	5.0	-13.0
184	7.0	-13.0
185	9.0	-13.0
186	11.0	-13.0
187	13.0	-13.0
188	13.0	-11.0
189	13.0	-9.0
190	13.0	-7.0
191	13.0	-5.0
192	13.0	-3.0
193	13.0	-1.0
194	15.0	1.0
195	15.0	3.0
196	15.0	5.0
197	15.0	7.0
198	15.0	9.0
199	15.0	11.0
200	15.0	13.0
201	15.0	15.0
202	13.0	15.0
203	11.0	15.0
204	9.0	15.0
205	7.0	15.0
206	5.0	15.0
207	3.0	15.0
208	1.0	15.0
209	-1.0	15.0
210	-3.0	15.0
211	-5.0	15.0
212	-7.0	15.0
213	-9.0	15.0
214	-11.0	15.0
215	-13.0	15.0
216	-15.0	15.0
217	-15.0	13.0
218	-15.0	11.0
219	-15.0	9.0
220	-15.0	7.0
221	-15.0	5.0
222	-15.0	3.0
223	-15.0	1.0
224	-15.0	-1.0
225	-15.0	-3.0
226	-15.0	-5.0
227	-15.0	-7.0
228	-15.0	-9.0
229	-15.0	-11.0
230	-15.0	-13.0
231	-15.0	-15.0
232	-13.0	-15.0
233	-11.0	-15.0
234	-9.0	-15.0
235	-7.0	-15.0
236	-5.0	-15.0
237	-3.0	-15.0
238	-1.0	-15.0
239	1.0	-15.0
240	3.0	-15.0
241	5.0	-15.0
242	7.0	-15.0
243	9.0	-15.0
244	11.0	-15.0
245	13.0	-15.0
246	15.0	-15.0
247	15.0	-13.0
248	15.0	-11.0
249	15.0	-9.0
250	15.0	-7.0
251	15.0	-5.0
252	15.0	-3.0
253	15.0	-1.0
DEMAND_SECTION
1	0
2	300
3	300
4	300
5	300
6	300
7	300
8	300
9	300
10	300
11	300
12	300
13	300
14	180
15	180
16	180
17	180
18	180
19	180
20	180
21	180
22	180
23	180
24	180
25	180
26	180
27	180
28	180
29	180
30	180
31	180
32	180
33	180
34	128
35	128
36	128
37	128
38	128
39	128
40	128
41	128
42	128
43	128
44	128
45	128
46	128
47	128
48	128
49	128
50	128
51	128
52	128
53	128
54	128
55	128
56	128
57	128
58	128
59	128
60	128
61	128
62	100
63	100
64	100
65	100
66	100
67	100
68	100
69	100
70	100
71	100
72	100
73	100
74	100
75	100
76	100
77	100
78	100
79	100
80	100
81	100
82	100
83	100
84	100
85	100
86	100
87	100
88	100
89	100
90	100
91	100
92	100
93	100
94	100
95	100
96	100
97	100
98	81
99	81
100	81
101	81
102	81
103	81
104	81
105	81
106	81
107	81
108	81
109	81
110	81
111	81
112	81
113	81
114	81
115	81
116	81
117	81
118	81
119	81
120	81
121	81
122	81
123	81
124	81
125	81
126	81
127	81
128	81
129	81
130	81
131	81
132	81
133	81
134	81
135	81
136	81
137	81
138	81
139	81
140	81
141	81
142	69
143	69
144	69
145	69
146	69
147	69
148	69
149	69
150	69
151	69
152	69
153	69
154	69
155	69
156	69
157	69
158	69
159	69
160	69
161	69
162	69
163	69
164	69
165	69
166	69
167	69
168	69
169	69
170	69
171	69
172	69
173	69
174	69
175	69
176	69
177	69
178	69
179	69
180	69
181	69
182	69
183	69
184	69
185	69
186	69
187	69
188	69
189	69
190	69
191	69
192	69
193	69
194	60
195	60
196	60
197	60
198	60
199	60
200	60
201	60
202	60
203	60
204	60
205	60
206	60
207	60
208	60
209	60
210	60
211	60
212	60
213	60
214	60
215	60
216	60
217	60
218	60
219	60
220	60
221	60
222	60
223	60
224	60
225	60
226	60
227	60
228	60
229	60
230	60
231	60
232	60
233	60
234	60
235	60
236	60
237	60
238	60
239	60
240	60
241	60
242	60
243	60
244	60
245	60
246	60
247	60
248	60
249	60
250	60
251	60
252	60
253	60
DEPOT_SECTION
1
-1
EOF
