experiment/data/hgs-res/Vrp-Set-Golden-n253/Vrp-Set-Golden-n253-hgs/0.hgs1.tour
Route #1: 48 80 120 168 224 225 226 169 121 81 49
Route #2: 82 122 170 171 227 228 172 124 123 83 84 50
Route #3: 26 51 25 24 8
Route #4: 85 126 125 175 174 173 229 230 231 232 233 234 176 127
Route #5: 52 86 128 178 177 235 236 237 238 239 181 131 89
Route #6: 10 28 27 9
Route #7: 53 87 129 179 180 130 88 54 29
Route #8: 90 132 183 184 185 186 187 135 134 133 91 56
Route #9: 92 136 188 248 247 246 245 244 243 242 241 240 182 55
Route #10: 11 31 32 12
Route #11: 30 58 94 138 190 191 139 95 59
Route #12: 60 96 140 192 252 251 250 249 189 137 93 57
Route #13: 62 98 142 143 196 195 194 193 141 97 61 33
Route #14: 16 15 35 34 14 13
Route #15: 63 99 144 145 197 198 146 102 101 100 64 36
Route #16: 1 2 3
Route #17: 66 104 150 204 203 202 201 200 199 147 148 149 103 65
Route #18: 17 39 69 107 153 152 106 68 38
Route #19: 40 70 108 154 208 207 206 205 151 105 67 37
Route #20: 4 18 19 5
Route #21: 43 74 112 158 159 213 212 211 210 209 155 109 71
Route #22: 41 72 110 156 157 111 73 42 20
Route #23: 115 162 218 217 216 215 214 160 161 113 114 75 44
Route #24: 21 45 77 117 165 166 118 78 46
Route #25: 76 116 164 163 219 220 221 222 223 167 119 79 47
Route #26: 6 22 23 7
Cost 859.593
